6020 5730 5222 5051 4787 4561 4454 4350 4214 4037 3960 3915 3780 3637 3508 3399 3330 3185 3153 3053 3020 2962 2899 2876 2825 2751 2716 2669 2634 2583 2552 2518 2491 2481 2459 2442 2435 2408 2393 2354 2338 2322 2297 2289 2274 2260 2245 2219 2209 2185 2201 2194 2160 2178 2149 2164 2155 2138 2146 2136 2128 2128 2120 2112 2103 2091 2076 2074 2039 2023 2023 2021 2036 2036 2030 2025 2014 2009 2009 2008 1998 1990 1987 1976 1974 1960 1962 1961 1962 1965 1934 1928 1928 1914 1938 1908 1922 1922 1921 1892 1892 1909 1892 1892 1876 1864 1838 1808 1796 1787 1801 1794 1792 1748 1748 1764 1779 1763 1762 1729 1721 1740 1720 1712 1727 1707 1707 1699 1699 1698 1695 1691 1673 1673 1660 1647 1647 1671 1670 1665 1660 1654 1651 1646 1639 1639 1634 1634 1630 1625 1620 1604 1604 1590 1590 1590 1590 1597 1597 1591 1591 1591 1591 1588 1587 1587 1587 1581 1581 1581 1567 1567 1564 1564 1564 1564 1564 1564 1564 1563 1563 1563 1561 1561 1561 1561 1561 1547 1547 1547 1545 1545 1541 1539 1539 1538 1538 1538 1510 1510 1510 1510 1510 1510 1510 1507 1507 1507 1507 1507 1507 1507 1507 1507 1507 1507 1507 1507 1507 1484 1484 1484 1484 1484 1484 1484 1484 1484 1484 1484 1484 1484 1484 1484 1484 1484 1484 1484 1484 1484 1484 1484 1484 1484 1484 1484 1484 1484 1484 1484 1484 1484 1484 1484 1484 1484 1484 1484 1484 1484 1484 1484 1484 1484 1484 1484 1484 1484 1484 1484 1484 1484 1484 1484 1484 1484 1484 1484 1484 1484 1484 1484 1484 1484 1484 1484 1484 1484 1484 1484 1484 1484 1484 1484 1484 1484 1484 1484 1484 1484 1484 1484 1484 1484 1484 1484 1484 1484 1484 1484 1484 1484 1484 1484 1484 1484 1484 1484 1484 1484 1484 1484 1484 1484 1484 1484 1484 1484 1484 1484 1484 1484 1484 1484 1484 1484 1484 1484 1484 1484 1484 1484 1484 1484 1484 1484 1484 1484 1484 1484 1484 1484 1484 1484 1484 1484 1484 1484 1484 1484 1484 1484 1484 1484 1484 1484 1484 1484 1484 1484 1484 1484 1484 1484 1484 1484 1484 1484 1484 1484 1484 1484 1484 1484 1484 1484 1484 1484 1484 1484 1484 1484 1484 1484 1484 1484 1484 1484 1484 1484 1484 1484 1484 1484 1484 1484 1484 1484 1484 1484 1484 1484 1484 1484 1484 1484 1484 1484 1484 1484 1484 1484 1484 1484 1484 1484 1484 1484 1484 1484 1484 1484 1484 1484 1484 1484 1484 1484 1484 1484 1484 1484 1484 1484 1484 1484 1484 1484 1484 1484 1484 1484 1484 1484 1484 1484 1484 1484 1484 1484 1484 1484 1484 1484 1484 1484 1484 1484 1484 1484 1484 1484 1484 1484 1484 1484 1484 1484 1484 1484 1484 1484 1484 1484 1484 1484 1484 1484 1484 1484 1484 1484 1484 1484 1484 1484 1484 1484 1484 1484 1484 1484 1484 1484 1484 1484 1484 1484 1484 1484 1484 1484 1484 1484 1484 1484 1484 1484 1484 1484 1484 1484 1484 1484 1484 1484 1484 1484 1484 1484 1484 1484 1484 1484 1484 1484 1484 1484 1484 1484 1484 1484 1484 1484 1484 1484 1484 1484 1484 1484 1484 1484 1484 1484 1484 1484 1484 1484 1484 1484 1484 1484 1484 1484 1484 1484 1484 1484 1484 1484 1484 1484 1484 1484 1484 1484 1484 1484 1484 1484 1484 1484 1484 1484 1484 1484 1484 1484 1484 1484 1484 1484 1484 1484 1484 1484 1484 1484 1484 1484 1484 1484 1484 1484 1484 1484 1484 1484 1484 1484 1484 1484 1484 1484 1484 1484 1484 1484 1484 1484 1484 1484 1484 1484 1484 1484 1484 1484 1484 1484 1484 1484 1484 1484 1484 1484 1484 1484 1484 1484 1484 1484 1484 1484 1484 1484 1484 1484 1484 1484 1484 1484 1484 1484 1484 1484 1484 1484 1484 1484 1484 1484 1484 1484 1484 1484 1484 1484 1484 1484 1484 1484 1484 1484 1484 1484 1484 1484 1484 1484 1484 1484 1484 1484 1484 1484 1484 1484 1484 1484 1484 1484 1484 1484 1484 1484 1484 1484 1484 1484 1484 1484 1484 1484 1484 1484 1484 1484 1484 1484 1484 1484 1484 1484 1484 1484 1484 1484 1484 1484 
4367 3945 3434 3265 3001 2775 2657 2601 2426 2298 2182 2132 2014 1858 1720 1645 1542 1417 1377 1266 1256 1187 1129 1105 1044 1003 952 923 874 831 788 746 727 716 699 679 671 645 634 597 578 553 539 526 513 502 493 479 472 461 454 446 435 421 420 412 398 398 389 389 379 375 371 362 353 343 331 322 309 309 292 291 280 275 263 257 252 251 251 241 240 240 239 233 232 226 226 220 219 214 200 199 194 188 188 188 186 186 176 176 176 159 132 132 128 114 78 60 56 56 56 56 52 50 41 39 35 33 22 22 22 16 16 16 16 16 16 16 16 16 16 16 16 13 13 13 13 13 13 13 13 13 13 13 13 13 13 13 13 13 13 13 13 13 13 0 0 0 0 0 0 0 0 0 0 0 0 0 0 0 0 0 0 0 0 0 0 0 0 0 0 0 0 0 0 0 0 0 0 0 0 0 0 0 0 0 0 0 0 0 0 0 0 0 0 0 0 0 0 0 0 0 0 0 0 0 0 0 0 0 0 0 0 0 0 0 0 0 0 0 0 0 0 0 0 0 0 0 0 0 0 0 0 0 0 0 0 0 0 0 0 0 0 0 0 0 0 0 0 0 0 0 0 0 0 0 0 0 0 0 0 0 0 0 0 0 0 0 0 0 0 0 0 0 0 0 0 0 0 0 0 0 0 0 0 0 0 0 0 0 0 0 0 0 0 0 0 0 0 0 0 0 0 0 0 0 0 0 0 0 0 0 0 0 0 0 0 0 0 0 0 0 0 0 0 0 0 0 0 0 0 0 0 0 0 0 0 0 0 0 0 0 0 0 0 0 0 0 0 0 0 0 0 0 0 0 0 0 0 0 0 0 0 0 0 0 0 0 0 0 0 0 0 0 0 0 0 0 0 0 0 0 0 0 0 0 0 0 0 0 0 0 0 0 0 0 0 0 0 0 0 0 0 0 0 0 0 0 0 0 0 0 0 0 0 0 0 0 0 0 0 0 0 0 0 0 0 0 0 0 0 0 0 0 0 0 0 0 0 0 0 0 0 0 0 0 0 0 0 0 0 0 0 0 0 0 0 0 0 0 0 0 0 0 0 0 0 0 0 0 0 0 0 0 0 0 0 0 0 0 0 0 0 0 0 0 0 0 0 0 0 0 0 0 0 0 0 0 0 0 0 0 0 0 0 0 0 0 0 0 0 0 0 0 0 0 0 0 0 0 0 0 0 0 0 0 0 0 0 0 0 0 0 0 0 0 0 0 0 0 0 0 0 0 0 0 0 0 0 0 0 0 0 0 0 0 0 0 0 0 0 0 0 0 0 0 0 0 0 0 0 0 0 0 0 0 0 0 0 0 0 0 0 0 0 0 0 0 0 0 0 0 0 0 0 0 0 0 0 0 0 0 0 0 0 0 0 0 0 0 0 0 0 0 0 0 0 0 0 0 0 0 0 0 0 0 0 0 0 0 0 0 0 0 0 0 0 0 0 0 0 0 0 0 0 0 0 0 0 0 0 0 0 0 0 0 0 0 0 0 0 0 0 0 0 0 0 0 0 0 0 0 0 0 0 0 0 0 0 0 0 0 0 0 0 0 0 0 0 0 0 0 0 0 0 0 0 0 0 0 0 0 0 0 0 0 0 0 0 0 